ssat_solver_solve2
#level: 2
Abc_NtkNodeNum(s->pNtk): 696  , BDD limit: 10240
level 1: 15 element
Exist
existence_eliminate_scope
Abc_NtkIsBddLogic(pNtk): 0
Abc_NtkIsStrash(pNtk): 1
existence_eliminate_scope_aig
exist by BDD failed
Abc_NtkNodeNum(s->pNtk): 956999  , BDD limit: 1148398
Build BDD success
level 0: 15 element
Random
c ssat solving in ABC
#var: 30
s SATISFIABLE
  > Upper bound = 3.829956e-02
  > Lower bound = 3.829956e-02
FINISHED CPU 5.48 MEM 226700 MAXMEM 226700 STALE 0 MAXMEM_RSS 176104
<time name="ALL">5590</time>
real 5.72
user 6.51
sys 2.70
